Iteration #1
Total number of hole bits is 368
Sketch file is blue_decrease_equivalent_10_canonicalizer_equivalent_0_sub_stateless_alu_arith_4_2_codegen_iteration_1.sk
Synthesis succeeded with 2 bits, proceeding to verification.
Verification failed.
Use returned counterexamples {'pkt_0': 11, 'pkt_1': 0} {'state_group_1_state_0': 0, 'state_group_0_state_0': 0}
updated constant array {'11', ' 3', '0', ' 10', ' 2', ' 1'}
Iteration #2
Total number of hole bits is 368
Sketch file is blue_decrease_equivalent_10_canonicalizer_equivalent_0_sub_stateless_alu_arith_4_2_codegen_iteration_2.sk
Synthesis succeeded with 2 bits, proceeding to verification.
Verification failed.
Use returned counterexamples {'pkt_0': 12, 'pkt_1': 0} {'state_group_1_state_0': 0, 'state_group_0_state_0': 0}
updated constant array {'11', ' 3', '0', ' 10', ' 2', ' 1', '12'}
Iteration #3
Total number of hole bits is 368
Sketch file is blue_decrease_equivalent_10_canonicalizer_equivalent_0_sub_stateless_alu_arith_4_2_codegen_iteration_3.sk
Synthesis succeeded with 2 bits, proceeding to verification.
Verification failed.
Use returned counterexamples {'pkt_0': 11, 'pkt_1': 0} {'state_group_1_state_0': 10, 'state_group_0_state_0': 0}
updated constant array {'11', ' 3', '10', '0', ' 10', ' 2', ' 1', '12'}
Iteration #4
Total number of hole bits is 368
Sketch file is blue_decrease_equivalent_10_canonicalizer_equivalent_0_sub_stateless_alu_arith_4_2_codegen_iteration_4.sk
Synthesis succeeded with 2 bits, proceeding to verification.
Verification failed.
Use returned counterexamples {'pkt_0': 10, 'pkt_1': 0} {'state_group_1_state_0': 0, 'state_group_0_state_0': 0}
updated constant array {'11', ' 3', '10', '0', ' 10', ' 2', ' 1', '12'}
Iteration #5
Total number of hole bits is 368
Sketch file is blue_decrease_equivalent_10_canonicalizer_equivalent_0_sub_stateless_alu_arith_4_2_codegen_iteration_5.sk
Synthesis succeeded with 2 bits, proceeding to verification.
Verification failed.
Use returned counterexamples {'pkt_0': 13, 'pkt_1': 0} {'state_group_1_state_0': 2, 'state_group_0_state_0': 0}
updated constant array {'11', ' 3', '10', '0', '13', '2', ' 10', ' 2', ' 1', '12'}
Iteration #6
Total number of hole bits is 416
Sketch file is blue_decrease_equivalent_10_canonicalizer_equivalent_0_sub_stateless_alu_arith_4_2_codegen_iteration_6.sk
Synthesis succeeded with 2 bits, proceeding to verification.
Verification failed.
Use returned counterexamples {'pkt_0': 11, 'pkt_1': 0} {'state_group_1_state_0': 0, 'state_group_0_state_0': 1}
updated constant array {'11', ' 3', '10', '0', '13', '2', ' 10', ' 2', '1', ' 1', '12'}
Iteration #7
Total number of hole bits is 416
Sketch file is blue_decrease_equivalent_10_canonicalizer_equivalent_0_sub_stateless_alu_arith_4_2_codegen_iteration_7.sk
Synthesis succeeded with 2 bits, proceeding to verification.
Verification failed.
Use returned counterexamples {'pkt_0': 13, 'pkt_1': 0} {'state_group_1_state_0': 1, 'state_group_0_state_0': 0}
updated constant array {'11', ' 3', '10', '0', '13', '2', ' 10', ' 2', '1', ' 1', '12'}
Iteration #8
Total number of hole bits is 416
Sketch file is blue_decrease_equivalent_10_canonicalizer_equivalent_0_sub_stateless_alu_arith_4_2_codegen_iteration_8.sk
Synthesis succeeded with 2 bits, proceeding to verification.
Verification failed.
Use returned counterexamples {'pkt_0': 10, 'pkt_1': 0} {'state_group_1_state_0': 0, 'state_group_0_state_0': 11}
updated constant array {'11', ' 3', '10', '0', '13', '2', ' 10', ' 2', '1', ' 1', '12'}
Iteration #9
Total number of hole bits is 416
Sketch file is blue_decrease_equivalent_10_canonicalizer_equivalent_0_sub_stateless_alu_arith_4_2_codegen_iteration_9.sk
Synthesis succeeded with 2 bits, proceeding to verification.
Verification failed.
Use returned counterexamples {'pkt_0': 12, 'pkt_1': 0} {'state_group_1_state_0': 11, 'state_group_0_state_0': 0}
updated constant array {'11', ' 3', '10', '0', '13', '2', ' 10', ' 2', '1', ' 1', '12'}
Iteration #10
Total number of hole bits is 416
Sketch file is blue_decrease_equivalent_10_canonicalizer_equivalent_0_sub_stateless_alu_arith_4_2_codegen_iteration_10.sk
Synthesis succeeded with 2 bits, proceeding to verification.
Verification failed.
Use returned counterexamples {'pkt_0': 11, 'pkt_1': 0} {'state_group_1_state_0': 1023, 'state_group_0_state_0': 0}
updated constant array {'11', ' 3', '10', '1023', '0', '13', '2', ' 10', ' 2', '1', ' 1', '12'}
Iteration #11
Total number of hole bits is 416
Sketch file is blue_decrease_equivalent_10_canonicalizer_equivalent_0_sub_stateless_alu_arith_4_2_codegen_iteration_11.sk
Compilation failed.
Output left in blue_decrease_equivalent_10_canonicalizer_equivalent_0_sub_stateless_alu_arith_4_2.errors